p cnf 7230 16
-1796 -2444 3119 0
-1798 -2442 -3120 0
1798 -3121 0
3126 3127 0
2450 -3127 0
-2450 -3126 0
3124 3125 0
2448 -3125 0
-2448 -3124 0
3122 3123 0
2446 -3123 0
-2446 -3122 0
3120 3121 0
2442 -3121 0
-3118 -3119 0
3118 3119 0
